c cksystemsgroup.github.io/unicorn
c CNF contains a total of 942 clauses.
c CNF contains a total of 239 variables.
c CNF clauses cover 1 bad states.
c Variable name mapping (33 names):
c   1: remainder[bit=0]
c   3: remainder[bit=1]
c   5: remainder[bit=2]
c   7: remainder[bit=3]
c   10: remainder[bit=4]
c   12: remainder[bit=5]
c   14: remainder[bit=6]
c   16: remainder[bit=7]
c   18: ?
c   19: quotient[bit=7]
c   20: input[bit=0]
c   22: quotient[bit=6]
c   23: input[bit=1]
c   26: quotient[bit=5]
c   29: quotient[bit=4]
c   32: quotient[bit=3]
c   35: quotient[bit=2]
c   38: quotient[bit=1]
c   41: quotient[bit=0]
c   51: input[bit=2]
c   70: input[bit=3]
c   86: input[bit=4]
c   101: input[bit=5]
c   111: input[bit=6]
c   118: input[bit=3]
c   133: input[bit=7]
c   146: input[bit=4]
c   154: input[bit=7]
c   161: input[bit=5]
c   169: input[bit=1]
c   177: input[bit=6]
c   184: input[bit=0]
c   233: input[bit=2]
p cnf 239 942
-1 -2 0
1 2 0
-2 -3 4 0
2 -4 0
3 -4 0
-4 -5 6 0
4 -6 0
5 -6 0
-7 -8 0
7 8 0
-6 -8 9 0
6 -9 0
8 -9 0
-9 -10 11 0
9 -11 0
10 -11 0
-11 -12 13 0
11 -13 0
12 -13 0
-13 -14 15 0
13 -15 0
14 -15 0
-16 -17 0
16 17 0
-15 -17 18 0
15 -18 0
17 -18 0
-19 -20 21 0
19 -21 0
20 -21 0
-22 -23 24 0
22 -24 0
23 -24 0
-22 -20 25 0
22 -25 0
20 -25 0
-26 -23 27 0
26 -27 0
23 -27 0
-26 -20 28 0
26 -28 0
20 -28 0
-29 -23 30 0
29 -30 0
23 -30 0
-29 -20 31 0
29 -31 0
20 -31 0
-32 -23 33 0
32 -33 0
23 -33 0
-32 -20 34 0
32 -34 0
20 -34 0
-35 -23 36 0
35 -36 0
23 -36 0
-35 -20 37 0
35 -37 0
20 -37 0
-38 -23 39 0
38 -39 0
23 -39 0
-38 -20 40 0
38 -40 0
20 -40 0
-41 -23 42 0
41 -42 0
23 -42 0
-43 0
40 42 -44 0
40 43 -44 0
-42 -43 44 0
42 43 -44 0
-40 -43 44 0
-40 -42 44 0
37 39 -45 0
37 44 -45 0
-39 -44 45 0
39 44 -45 0
-37 -44 45 0
-37 -39 45 0
34 36 -46 0
34 45 -46 0
-36 -45 46 0
36 45 -46 0
-34 -45 46 0
-34 -36 46 0
31 33 -47 0
31 46 -47 0
-33 -46 47 0
33 46 -47 0
-31 -46 47 0
-31 -33 47 0
28 30 -48 0
28 47 -48 0
-30 -47 48 0
30 47 -48 0
-28 -47 48 0
-28 -30 48 0
25 27 -49 0
25 48 -49 0
-27 -48 49 0
27 48 -49 0
-25 -48 49 0
-25 -27 49 0
21 24 49 -50 0
21 24 -49 50 0
21 -24 49 50 0
21 -24 -49 -50 0
-21 24 49 50 0
-21 24 -49 -50 0
-21 -24 49 -50 0
-21 -24 -49 50 0
-26 -51 52 0
26 -52 0
51 -52 0
25 27 48 -53 0
25 27 -48 53 0
25 -27 48 53 0
25 -27 -48 -53 0
-25 27 48 53 0
-25 27 -48 -53 0
-25 -27 48 -53 0
-25 -27 -48 53 0
-29 -51 54 0
29 -54 0
51 -54 0
28 30 47 -55 0
28 30 -47 55 0
28 -30 47 55 0
28 -30 -47 -55 0
-28 30 47 55 0
-28 30 -47 -55 0
-28 -30 47 -55 0
-28 -30 -47 55 0
-32 -51 56 0
32 -56 0
51 -56 0
31 33 46 -57 0
31 33 -46 57 0
31 -33 46 57 0
31 -33 -46 -57 0
-31 33 46 57 0
-31 33 -46 -57 0
-31 -33 46 -57 0
-31 -33 -46 57 0
-35 -51 58 0
35 -58 0
51 -58 0
34 36 45 -59 0
34 36 -45 59 0
34 -36 45 59 0
34 -36 -45 -59 0
-34 36 45 59 0
-34 36 -45 -59 0
-34 -36 45 -59 0
-34 -36 -45 59 0
-38 -51 60 0
38 -60 0
51 -60 0
37 39 44 -61 0
37 39 -44 61 0
37 -39 44 61 0
37 -39 -44 -61 0
-37 39 44 61 0
-37 39 -44 -61 0
-37 -39 44 -61 0
-37 -39 -44 61 0
-41 -51 62 0
41 -62 0
51 -62 0
-63 0
61 62 -64 0
61 63 -64 0
-62 -63 64 0
62 63 -64 0
-61 -63 64 0
-61 -62 64 0
59 60 -65 0
59 64 -65 0
-60 -64 65 0
60 64 -65 0
-59 -64 65 0
-59 -60 65 0
57 58 -66 0
57 65 -66 0
-58 -65 66 0
58 65 -66 0
-57 -65 66 0
-57 -58 66 0
55 56 -67 0
55 66 -67 0
-56 -66 67 0
56 66 -67 0
-55 -66 67 0
-55 -56 67 0
53 54 -68 0
53 67 -68 0
-54 -67 68 0
54 67 -68 0
-53 -67 68 0
-53 -54 68 0
50 52 68 -69 0
50 52 -68 69 0
50 -52 68 69 0
50 -52 -68 -69 0
-50 52 68 69 0
-50 52 -68 -69 0
-50 -52 68 -69 0
-50 -52 -68 69 0
-29 -70 71 0
29 -71 0
70 -71 0
53 54 67 -72 0
53 54 -67 72 0
53 -54 67 72 0
53 -54 -67 -72 0
-53 54 67 72 0
-53 54 -67 -72 0
-53 -54 67 -72 0
-53 -54 -67 72 0
-32 -70 73 0
32 -73 0
70 -73 0
55 56 66 -74 0
55 56 -66 74 0
55 -56 66 74 0
55 -56 -66 -74 0
-55 56 66 74 0
-55 56 -66 -74 0
-55 -56 66 -74 0
-55 -56 -66 74 0
-35 -70 75 0
35 -75 0
70 -75 0
57 58 65 -76 0
57 58 -65 76 0
57 -58 65 76 0
57 -58 -65 -76 0
-57 58 65 76 0
-57 58 -65 -76 0
-57 -58 65 -76 0
-57 -58 -65 76 0
-38 -70 77 0
38 -77 0
70 -77 0
59 60 64 -78 0
59 60 -64 78 0
59 -60 64 78 0
59 -60 -64 -78 0
-59 60 64 78 0
-59 60 -64 -78 0
-59 -60 64 -78 0
-59 -60 -64 78 0
-41 -70 79 0
41 -79 0
70 -79 0
-80 0
78 79 -81 0
78 80 -81 0
-79 -80 81 0
79 80 -81 0
-78 -80 81 0
-78 -79 81 0
76 77 -82 0
76 81 -82 0
-77 -81 82 0
77 81 -82 0
-76 -81 82 0
-76 -77 82 0
74 75 -83 0
74 82 -83 0
-75 -82 83 0
75 82 -83 0
-74 -82 83 0
-74 -75 83 0
72 73 -84 0
72 83 -84 0
-73 -83 84 0
73 83 -84 0
-72 -83 84 0
-72 -73 84 0
69 71 84 -85 0
69 71 -84 85 0
69 -71 84 85 0
69 -71 -84 -85 0
-69 71 84 85 0
-69 71 -84 -85 0
-69 -71 84 -85 0
-69 -71 -84 85 0
-32 -86 87 0
32 -87 0
86 -87 0
72 73 83 -88 0
72 73 -83 88 0
72 -73 83 88 0
72 -73 -83 -88 0
-72 73 83 88 0
-72 73 -83 -88 0
-72 -73 83 -88 0
-72 -73 -83 88 0
-35 -86 89 0
35 -89 0
86 -89 0
74 75 82 -90 0
74 75 -82 90 0
74 -75 82 90 0
74 -75 -82 -90 0
-74 75 82 90 0
-74 75 -82 -90 0
-74 -75 82 -90 0
-74 -75 -82 90 0
-38 -86 91 0
38 -91 0
86 -91 0
76 77 81 -92 0
76 77 -81 92 0
76 -77 81 92 0
76 -77 -81 -92 0
-76 77 81 92 0
-76 77 -81 -92 0
-76 -77 81 -92 0
-76 -77 -81 92 0
-41 -86 93 0
41 -93 0
86 -93 0
-94 0
92 93 -95 0
92 94 -95 0
-93 -94 95 0
93 94 -95 0
-92 -94 95 0
-92 -93 95 0
90 91 -96 0
90 95 -96 0
-91 -95 96 0
91 95 -96 0
-90 -95 96 0
-90 -91 96 0
88 89 -97 0
88 96 -97 0
-89 -96 97 0
89 96 -97 0
-88 -96 97 0
-88 -89 97 0
85 87 -98 0
85 97 -98 0
-87 -97 98 0
87 97 -98 0
-85 -97 98 0
-85 -87 98 0
-98 0
50 52 -99 0
50 68 -99 0
-52 -68 99 0
52 68 -99 0
-50 -68 99 0
-50 -52 99 0
-99 0
85 87 97 -100 0
85 87 -97 100 0
85 -87 97 100 0
85 -87 -97 -100 0
-85 87 97 100 0
-85 87 -97 -100 0
-85 -87 97 -100 0
-85 -87 -97 100 0
-35 -101 102 0
35 -102 0
101 -102 0
88 89 96 -103 0
88 89 -96 103 0
88 -89 96 103 0
88 -89 -96 -103 0
-88 89 96 103 0
-88 89 -96 -103 0
-88 -89 96 -103 0
-88 -89 -96 103 0
-38 -101 104 0
38 -104 0
101 -104 0
90 91 95 -105 0
90 91 -95 105 0
90 -91 95 105 0
90 -91 -95 -105 0
-90 91 95 105 0
-90 91 -95 -105 0
-90 -91 95 -105 0
-90 -91 -95 105 0
-41 -101 106 0
41 -106 0
101 -106 0
-107 0
105 106 -108 0
105 107 -108 0
-106 -107 108 0
106 107 -108 0
-105 -107 108 0
-105 -106 108 0
103 104 -109 0
103 108 -109 0
-104 -108 109 0
104 108 -109 0
-103 -108 109 0
-103 -104 109 0
100 102 109 -110 0
100 102 -109 110 0
100 -102 109 110 0
100 -102 -109 -110 0
-100 102 109 110 0
-100 102 -109 -110 0
-100 -102 109 -110 0
-100 -102 -109 110 0
-38 -111 112 0
38 -112 0
111 -112 0
103 104 108 -113 0
103 104 -108 113 0
103 -104 108 113 0
103 -104 -108 -113 0
-103 104 108 113 0
-103 104 -108 -113 0
-103 -104 108 -113 0
-103 -104 -108 113 0
-41 -111 114 0
41 -114 0
111 -114 0
-115 0
113 114 -116 0
113 115 -116 0
-114 -115 116 0
114 115 -116 0
-113 -115 116 0
-113 -114 116 0
110 112 -117 0
110 116 -117 0
-112 -116 117 0
112 116 -117 0
-110 -116 117 0
-110 -112 117 0
-117 0
78 79 80 -119 0
78 79 -80 119 0
78 -79 80 119 0
78 -79 -80 -119 0
-78 79 80 119 0
-78 79 -80 -119 0
-78 -79 80 -119 0
-78 -79 -80 119 0
61 62 63 -120 0
61 62 -63 120 0
61 -62 63 120 0
61 -62 -63 -120 0
-61 62 63 120 0
-61 62 -63 -120 0
-61 -62 63 -120 0
-61 -62 -63 120 0
40 42 43 -121 0
40 42 -43 121 0
40 -42 43 121 0
40 -42 -43 -121 0
-40 42 43 121 0
-40 42 -43 -121 0
-40 -42 43 -121 0
-40 -42 -43 121 0
-41 -20 122 0
41 -122 0
20 -122 0
-122 -1 123 0
122 -123 0
1 -123 0
121 3 -124 0
121 123 -124 0
-3 -123 124 0
3 123 -124 0
-121 -123 124 0
-121 -3 124 0
120 5 -125 0
120 124 -125 0
-5 -124 125 0
5 124 -125 0
-120 -124 125 0
-120 -5 125 0
119 7 125 -126 0
119 7 -125 126 0
119 -7 125 126 0
119 -7 -125 -126 0
-119 7 125 126 0
-119 7 -125 -126 0
-119 -7 125 -126 0
-119 -7 -125 126 0
-118 -126 -127 0
118 127 0
126 127 0
-118 -128 0
118 128 0
-126 -129 0
126 129 0
-128 -129 -130 0
128 130 0
129 130 0
-127 -130 -131 0
127 131 0
130 131 0
131 0
110 112 116 -132 0
110 112 -116 132 0
110 -112 116 132 0
110 -112 -116 -132 0
-110 112 116 132 0
-110 112 -116 -132 0
-110 -112 116 -132 0
-110 -112 -116 132 0
-41 -133 134 0
41 -134 0
133 -134 0
-135 0
132 134 135 -136 0
132 134 -135 136 0
132 -134 135 136 0
132 -134 -135 -136 0
-132 134 135 136 0
-132 134 -135 -136 0
-132 -134 135 -136 0
-132 -134 -135 136 0
113 114 115 -137 0
113 114 -115 137 0
113 -114 115 137 0
113 -114 -115 -137 0
-113 114 115 137 0
-113 114 -115 -137 0
-113 -114 115 -137 0
-113 -114 -115 137 0
105 106 107 -138 0
105 106 -107 138 0
105 -106 107 138 0
105 -106 -107 -138 0
-105 106 107 138 0
-105 106 -107 -138 0
-105 -106 107 -138 0
-105 -106 -107 138 0
92 93 94 -139 0
92 93 -94 139 0
92 -93 94 139 0
92 -93 -94 -139 0
-92 93 94 139 0
-92 93 -94 -139 0
-92 -93 94 -139 0
-92 -93 -94 139 0
119 7 -140 0
119 125 -140 0
-7 -125 140 0
7 125 -140 0
-119 -125 140 0
-119 -7 140 0
139 10 -141 0
139 140 -141 0
-10 -140 141 0
10 140 -141 0
-139 -140 141 0
-139 -10 141 0
138 12 -142 0
138 141 -142 0
-12 -141 142 0
12 141 -142 0
-138 -141 142 0
-138 -12 142 0
137 14 -143 0
137 142 -143 0
-14 -142 143 0
14 142 -143 0
-137 -142 143 0
-137 -14 143 0
136 16 -144 0
136 143 -144 0
-16 -143 144 0
16 143 -144 0
-136 -143 144 0
-136 -16 144 0
-144 0
132 134 -145 0
132 135 -145 0
-134 -135 145 0
134 135 -145 0
-132 -135 145 0
-132 -134 145 0
-145 0
139 10 140 -147 0
139 10 -140 147 0
139 -10 140 147 0
139 -10 -140 -147 0
-139 10 140 147 0
-139 10 -140 -147 0
-139 -10 140 -147 0
-139 -10 -140 147 0
-146 -147 -148 0
146 148 0
147 148 0
-146 -149 0
146 149 0
-147 -150 0
147 150 0
-149 -150 -151 0
149 151 0
150 151 0
-148 -151 -152 0
148 152 0
151 152 0
152 0
-153 0
-153 0
136 16 143 -155 0
136 16 -143 155 0
136 -16 143 155 0
136 -16 -143 -155 0
-136 16 143 155 0
-136 16 -143 -155 0
-136 -16 143 -155 0
-136 -16 -143 155 0
-154 -155 -156 0
154 156 0
155 156 0
-154 -157 0
154 157 0
-155 -158 0
155 158 0
-157 -158 -159 0
157 159 0
158 159 0
-156 -159 -160 0
156 160 0
159 160 0
160 0
138 12 141 -162 0
138 12 -141 162 0
138 -12 141 162 0
138 -12 -141 -162 0
-138 12 141 162 0
-138 12 -141 -162 0
-138 -12 141 -162 0
-138 -12 -141 162 0
-161 -162 -163 0
161 163 0
162 163 0
-161 -164 0
161 164 0
-162 -165 0
162 165 0
-164 -165 -166 0
164 166 0
165 166 0
-163 -166 -167 0
163 167 0
166 167 0
167 0
21 24 -168 0
21 49 -168 0
-24 -49 168 0
24 49 -168 0
-21 -49 168 0
-21 -24 168 0
-168 0
121 3 123 -170 0
121 3 -123 170 0
121 -3 123 170 0
121 -3 -123 -170 0
-121 3 123 170 0
-121 3 -123 -170 0
-121 -3 123 -170 0
-121 -3 -123 170 0
-169 -170 -171 0
169 171 0
170 171 0
-169 -172 0
169 172 0
-170 -173 0
170 173 0
-172 -173 -174 0
172 174 0
173 174 0
-171 -174 -175 0
171 175 0
174 175 0
175 0
69 71 -176 0
69 84 -176 0
-71 -84 176 0
71 84 -176 0
-69 -84 176 0
-69 -71 176 0
-176 0
137 14 142 -178 0
137 14 -142 178 0
137 -14 142 178 0
137 -14 -142 -178 0
-137 14 142 178 0
-137 14 -142 -178 0
-137 -14 142 -178 0
-137 -14 -142 178 0
-177 -178 -179 0
177 179 0
178 179 0
-177 -180 0
177 180 0
-178 -181 0
178 181 0
-180 -181 -182 0
180 182 0
181 182 0
-179 -182 -183 0
179 183 0
182 183 0
183 0
122 1 -185 0
122 -1 185 0
-122 1 185 0
-122 -1 -185 0
-184 -185 -186 0
184 186 0
185 186 0
-184 -187 0
184 187 0
-185 -188 0
185 188 0
-187 -188 -189 0
187 189 0
188 189 0
-186 -189 -190 0
186 190 0
189 190 0
190 0
100 102 -191 0
100 109 -191 0
-102 -109 191 0
102 109 -191 0
-100 -109 191 0
-100 -102 191 0
-191 0
-192 0
-133 -193 0
133 193 0
-194 0
-111 -195 0
111 195 0
-196 0
-101 -197 0
101 197 0
-198 0
-86 -199 0
86 199 0
-200 0
-70 -201 0
70 201 0
-202 0
-51 -203 0
51 203 0
-204 0
-23 -205 0
23 205 0
-206 0
-20 -207 0
20 207 0
205 206 -208 0
205 207 -208 0
-206 -207 208 0
206 207 -208 0
-205 -207 208 0
-205 -206 208 0
203 204 -209 0
203 208 -209 0
-204 -208 209 0
204 208 -209 0
-203 -208 209 0
-203 -204 209 0
201 202 -210 0
201 209 -210 0
-202 -209 210 0
202 209 -210 0
-201 -209 210 0
-201 -202 210 0
199 200 -211 0
199 210 -211 0
-200 -210 211 0
200 210 -211 0
-199 -210 211 0
-199 -200 211 0
197 198 -212 0
197 211 -212 0
-198 -211 212 0
198 211 -212 0
-197 -211 212 0
-197 -198 212 0
195 196 -213 0
195 212 -213 0
-196 -212 213 0
196 212 -213 0
-195 -212 213 0
-195 -196 213 0
193 194 -214 0
193 213 -214 0
-194 -213 214 0
194 213 -214 0
-193 -213 214 0
-193 -194 214 0
-214 -215 0
214 215 0
193 194 213 -216 0
193 194 -213 216 0
193 -194 213 216 0
193 -194 -213 -216 0
-193 194 213 216 0
-193 194 -213 -216 0
-193 -194 213 -216 0
-193 -194 -213 216 0
195 196 212 -217 0
195 196 -212 217 0
195 -196 212 217 0
195 -196 -212 -217 0
-195 196 212 217 0
-195 196 -212 -217 0
-195 -196 212 -217 0
-195 -196 -212 217 0
197 198 211 -218 0
197 198 -211 218 0
197 -198 211 218 0
197 -198 -211 -218 0
-197 198 211 218 0
-197 198 -211 -218 0
-197 -198 211 -218 0
-197 -198 -211 218 0
199 200 210 -219 0
199 200 -210 219 0
199 -200 210 219 0
199 -200 -210 -219 0
-199 200 210 219 0
-199 200 -210 -219 0
-199 -200 210 -219 0
-199 -200 -210 219 0
201 202 209 -220 0
201 202 -209 220 0
201 -202 209 220 0
201 -202 -209 -220 0
-201 202 209 220 0
-201 202 -209 -220 0
-201 -202 209 -220 0
-201 -202 -209 220 0
203 204 208 -221 0
203 204 -208 221 0
203 -204 208 221 0
203 -204 -208 -221 0
-203 204 208 221 0
-203 204 -208 -221 0
-203 -204 208 -221 0
-203 -204 -208 221 0
205 206 207 -222 0
205 206 -207 222 0
205 -206 207 222 0
205 -206 -207 -222 0
-205 206 207 222 0
-205 206 -207 -222 0
-205 -206 207 -222 0
-205 -206 -207 222 0
-207 -223 0
207 223 0
-1 -223 224 0
1 -224 0
223 -224 0
3 222 -225 0
3 224 -225 0
-222 -224 225 0
222 224 -225 0
-3 -224 225 0
-3 -222 225 0
5 221 -226 0
5 225 -226 0
-221 -225 226 0
221 225 -226 0
-5 -225 226 0
-5 -221 226 0
7 220 -227 0
7 226 -227 0
-220 -226 227 0
220 226 -227 0
-7 -226 227 0
-7 -220 227 0
10 219 -228 0
10 227 -228 0
-219 -227 228 0
219 227 -228 0
-10 -227 228 0
-10 -219 228 0
12 218 -229 0
12 228 -229 0
-218 -228 229 0
218 228 -229 0
-12 -228 229 0
-12 -218 229 0
14 217 -230 0
14 229 -230 0
-217 -229 230 0
217 229 -230 0
-14 -229 230 0
-14 -217 230 0
16 216 -231 0
16 230 -231 0
-216 -230 231 0
216 230 -231 0
-16 -230 231 0
-16 -216 231 0
192 215 231 -232 0
192 215 -231 232 0
192 -215 231 232 0
192 -215 -231 -232 0
-192 215 231 232 0
-192 215 -231 -232 0
-192 -215 231 -232 0
-192 -215 -231 232 0
232 0
120 5 124 -234 0
120 5 -124 234 0
120 -5 124 234 0
120 -5 -124 -234 0
-120 5 124 234 0
-120 5 -124 -234 0
-120 -5 124 -234 0
-120 -5 -124 234 0
-233 -234 -235 0
233 235 0
234 235 0
-233 -236 0
233 236 0
-234 -237 0
234 237 0
-236 -237 -238 0
236 238 0
237 238 0
-235 -238 -239 0
235 239 0
238 239 0
239 0
18 0
